62	0

0	3	2	3	4
4	3	5	6	7
7	6	8	9	10	11	13	16
5	4	5	6	8	10
8	4	9	11	13	16
8	4	9	11	13	16
2	6	8	9	10	11	13	16
8	5	12	14	15	17	19
2	5	12	14	15	17	19
10	5	17	18	19	20	21
1	5	12	14	15	17	19
9	6	25	29	30	31	32	34
9	7	22	23	24	25	26	27	28
4	2	18	20
3	3	18	20	21
10	4	22	23	25	27
6	4	22	23	25	27
9	6	31	32	33	35	36	42
6	4	22	23	25	27
3	7	22	23	24	25	26	27	28
5	4	22	23	25	27
4	7	31	32	33	34	35	36	42
4	7	31	32	33	34	35	36	42
6	6	31	32	33	35	36	42
5	4	33	35	36	42
4	6	29	30	31	32	34	35
3	6	29	30	31	32	34	35
6	6	31	32	33	35	36	42
5	4	33	36	37	42
5	4	33	36	37	42
7	3	39	40	44
7	3	39	40	44
5	3	40	43	48
7	5	38	39	40	41	44
3	1	37
7	4	45	46	47	48
2	5	38	39	40	41	44
10	2	45	46
2	2	43	48
4	3	45	46	47
3	2	43	48
7	4	45	46	47	48
4	3	45	46	47
10	1	45
6	2	49	52
9	3	51	53	55
10	2	49	52
9	2	49	52
1	3	50	51	53
4	3	54	55	57
9	2	56	59
6	2	54	57
4	2	54	57
4	2	56	58
10	2	60	61
8	1	60
8	2	60	61
2	1	59
3	2	60	61
6	1	62
6	1	62
0	0
